CMD:
./solvers/bin/cadical --plain --no-reduce -t 1600 ./data/cnfs//shift_register_top_w16_d16_e0/shift_register_top_w16_d16_e0.10.cnf

c --- [ banner ] -------------------------------------------------------------
c 
c CaDiCaL SAT Solver
c Copyright (c) 2016-2024
c A. Biere, M. Fleury, N. Froleyks, K. Fazekas, F. Pollitt, T. Faller
c JKU Linz, University of Freiburg, TU Wien
c 
c Version 2.1.3 5296d3d2a9bf48c154ab2acb5e44625776d821bf
c g++ (Gentoo 12.3.1_p20230526 p2) 12.3.1 20230526 -Wall -Wextra -O3 -DNDEBUG
c Sat Aug 9 07:26:21 PDT 2025 Linux cedar2.int.cedar.computecanada.ca 5.14.0-362.24.2.el9_3.x86_64 x86_64
c 
c --- [ limit ] --------------------------------------------------------------
c 
c setting time limit to 1600 seconds real time (due to '-t 1600')
c 
c --- [ parsing input ] ------------------------------------------------------
c 
c reading DIMACS file from './data/cnfs//shift_register_top_w16_d16_e0/shift_register_top_w16_d16_e0.10.cnf'
c opening file to read './data/cnfs//shift_register_top_w16_d16_e0/shift_register_top_w16_d16_e0.10.cnf'
c found 'p cnf 26873 78563' header
c parsed 78563 clauses in 0.01 seconds process time
c 
c --- [ options ] ------------------------------------------------------------
c 
c   --compact=false                (different from default 'true')
c   --decompose=false              (different from default 'true')
c   --deduplicate=false            (different from default 'true')
c   --elim=false                   (different from default 'true')
c   --probe=false                  (different from default 'true')
c   --reduce=false                 (different from default 'true')
c   --subsume=false                (different from default 'true')
c   --ternary=false                (different from default 'true')
c   --transred=false               (different from default 'true')
c   --vivify=false                 (different from default 'true')
c 
c --- [ solving ] ------------------------------------------------------------
c 
c time measured in process time since initialization
c 
c  seconds  reductions  redundant  irredundant
c         MB    restarts       trail      variables
c          level   conflicts       glue        remaining
c 
c *  0.01 15  0 0   0    0    0  0% 0 73144 21538 80%
c {  0.02 16  0 0   0    0    0  0% 0 73144 21538 80%
c i  0.02 16 459 0   0    6    5 82% 1 73144 21280 79%
c i  0.02 16 434 0   0   34   19 76% 2 73144 21236 79%
c i  0.02 16 341 0   2   41   24 68% 3 73144 21106 79%
c i  0.02 16 328 0   2   42   24 68% 2 73144 20977 78%
c i  0.02 16 297 0   2   45   26 66% 2 73144 20971 78%
c i  0.02 16 250 0   2   51   31 63% 2 73144 20463 76%
c i  0.02 16 181 0   6   82   58 58% 3 73144 19681 73%
c i  0.02 16 169 0   7   88   62 57% 3 73144 19674 73%
c i  0.02 16 167 0   7   89   62 57% 3 73144 19670 73%
c i  0.02 16 161 0   7   92   64 56% 3 73144 19512 73%
c i  0.03 16 102 0  25  204  170 65% 5 73144 19424 72%
c i  0.05 16 48 0  43  719  660 71% 5 73144 19419 72%
c i  0.05 16 47 0  56  826  748 70% 5 73144 19358 72%
c i  0.06 16 44 0  77  913  815 69% 5 73144 19351 72%
c }  0.06 16 42 0  77 1001  901 70% 5 73144 19351 72%
c [  0.06 16  0 0  77 1001  901  0% 0 73144 19351 72%
c O  0.06 16 425 0  77 1002  902 87% 4 73144 19351 72%
c ]  0.19 17 193 0  78 3002 2756 75% 7 73144 19351 72%
c 
c  seconds  reductions  redundant  irredundant
c         MB    restarts       trail      variables
c          level   conflicts       glue        remaining
c 
c {  0.19 17 42 0  78 3002 2756 70% 5 73144 19351 72%
c F  0.19 17 42 0  78 3003 2757 70% 5 73144 19351 72%
c i  0.19 17 41 0  78 3031 2782 69% 5 73144 19344 72%
c i  0.19 17 41 0  78 3037 2786 69% 5 73144 18734 70%
c i  0.19 17 41 0  78 3038 2786 69% 5 73144 18728 70%
c i  0.19 17 41 0  90 3104 2839 68% 6 73144 18642 69%
c i  0.20 17 39 0 116 3238 2956 67% 6 73144 18639 69%
c i  0.23 17 30 0 155 3959 3640 65% 6 73144 18628 69%
c i  0.24 17 28 0 158 4274 3861 66% 6 73144 18542 69%
c i  0.25 17 28 0 160 4474 4038 65% 6 73144 18522 69%
c i  0.31 17 23 0 160 5543 4905 63% 5 73144 18513 69%
c i  0.31 17 23 0 160 5544 4905 63% 5 73144 18504 69%
c i  0.31 17 23 0 160 5545 4905 63% 5 73144 18495 69%
c i  0.31 17 23 0 160 5547 4905 63% 5 73144 18467 69%
c i  0.32 17 22 0 161 5829 5143 63% 5 73144 18456 69%
c i  0.32 17 22 0 161 5830 5143 63% 5 73144 18445 69%
c i  0.32 17 22 0 161 5948 5246 63% 5 73144 18434 69%
c #  0.32 17 22 0 172 6004 5286 63% 5 73144 18434 69%
c i  0.35 17 21 0 211 6441 5606 63% 5 73144 18408 68%
c i  0.38 17 21 0 290 6928 5956 62% 6 73144 18406 68%
c 
c  seconds  reductions  redundant  irredundant
c         MB    restarts       trail      variables
c          level   conflicts       glue        remaining
c 
c i  0.38 17 21 0 290 6929 5956 62% 6 73144 18404 68%
c i  0.38 17 21 0 290 6931 5957 62% 6 73144 18402 68%
c i  0.38 17 21 0 291 6933 5958 62% 6 73144 18400 68%
c i  0.38 17 21 0 291 6935 5959 62% 6 73144 18398 68%
c i  0.38 17 21 0 292 6937 5960 62% 6 73144 18396 68%
c i  0.38 17 21 0 292 6939 5961 62% 6 73144 18394 68%
c i  0.38 17 21 0 293 6941 5962 62% 6 73144 18392 68%
c i  0.38 17 21 0 293 6943 5963 62% 6 73144 18390 68%
c i  0.38 17 21 0 294 6945 5964 62% 6 73144 18388 68%
c i  0.38 17 21 0 294 6947 5965 62% 6 73144 18386 68%
c i  0.38 17 21 0 295 6948 5965 62% 6 73144 18384 68%
c i  0.38 17 21 0 304 6992 5995 62% 6 73144 18367 68%
c }  0.38 18 21 0 306 7002 6005 62% 6 73144 18367 68%
c [  0.38 18 193 0 306 7002 6005 75% 7 73144 18367 68%
c i  0.40 18 172 0 307 7256 6188 73% 7 73144 17806 66%
c i  0.41 18 157 0 307 7488 6359 72% 7 73144 17252 64%
c i  0.42 18 151 0 307 7591 6447 72% 7 73144 15907 59%
c i  0.42 18 149 0 307 7634 6459 72% 7 73144 15584 58%
c i  0.42 18 147 0 307 7673 6479 71% 7 73144 12564 47%
c i  0.42 18 147 0 307 7674 6479 71% 7 73144 12103 45%
c 
c  seconds   reductions  redundant  irredundant
c         MB     restarts       trail      variables
c           level   conflicts       glue        remaining
c 
c ]  0.42 18 147 0 307 7676 6479 71% 7 73144 11998 45%
c 0  0.42 18 147 0 307 7676 6479 71% 7 73144 11998 45%
c 
c --- [ result ] -------------------------------------------------------------
c 
s UNSATISFIABLE
c 
c --- [ run-time profiling ] -------------------------------------------------
c 
c process time taken by individual solving procedures
c (percentage relative to process time for solving)
c 
c         0.41   99.98% search
c         0.24   58.55% unstable
c         0.16   40.06% stable
c         0.01    3.02% parse
c         0.01    1.36% lucky
c         0.00    0.00% simplify
c   =================================
c         0.41   96.97% solve
c 
c last line shows process time for solving
c (percentage relative to total process time)
c 
c --- [ statistics ] ---------------------------------------------------------
c 
c chronological:              4101        53.43 %  of conflicts
c conflicts:                  7676     18740.33    per second
c decisions:                 38041     92873.99    per second
c fixed:                     14874        55.35 %  of all variables
c learned:                    7533        98.14 %  per conflict
c learned_lits:             188274       100.00 %  learned literals
c minimized:                     0         0.00 %  learned literals
c shrunken:                  54436        28.91 %  learned literals
c minishrunken:              29560        15.70 %  learned literals
c otfs:                         23         0.30 %  of conflict
c propagations:           11216500        27.38 M  per second
c rephased:                      3      2558.67    interval
c restarts:                    307        25.00    interval
c stabilizing:                   2        34.85 %  of conflicts
c subsumed:                   1000         1.24 %  of all clauses
c strengthened:                 22         0.03 %  of all clauses
c 
c seconds are measured in process time for solving
c 
c --- [ resources ] ----------------------------------------------------------
c 
c total process time since initialization:         0.42    seconds
c total real time since initialization:            0.43    seconds
c maximum resident set size of process:           30.68    MB
c 
c --- [ shutting down ] ------------------------------------------------------
c 
c exit 20
